NAME 
ROWS
 N  OBJ
 L  ULC[0]  
 L  ULC[1]  
 L  ULC[2]  
 L  ULC[3]  
 L  ULC[4]  
 L  LLC[0]  
 L  LLC[1]  
 L  LLC[2]  
 L  LLC[3]  
 L  LLC[4]  
COLUMNS
    MARKER    'MARKER'                 'INTORG'
    X[0]      OBJ       -36
    X[0]      ULC[0]    36
    X[0]      ULC[1]    21
    X[0]      ULC[2]    5
    X[0]      ULC[3]    85
    X[0]      ULC[4]    86
    X[0]      LLC[0]    70
    X[0]      LLC[1]    35
    X[0]      LLC[2]    19
    X[0]      LLC[3]    67
    X[0]      LLC[4]    25
    X[1]      OBJ       16
    X[1]      ULC[0]    69
    X[1]      ULC[1]    75
    X[1]      ULC[2]    80
    X[1]      ULC[3]    86
    X[1]      ULC[4]    42
    X[1]      LLC[0]    95
    X[1]      LLC[1]    28
    X[1]      LLC[2]    19
    X[1]      LLC[3]    31
    X[1]      LLC[4]    37
    X[2]      OBJ       -25
    X[2]      ULC[0]    40
    X[2]      ULC[1]    55
    X[2]      ULC[2]    30
    X[2]      ULC[3]    12
    X[2]      ULC[4]    62
    X[2]      LLC[0]    52
    X[2]      LLC[1]    63
    X[2]      LLC[2]    39
    X[2]      LLC[3]    98
    X[2]      LLC[4]    72
    X[3]      OBJ       37
    X[3]      ULC[0]    98
    X[3]      ULC[1]    60
    X[3]      ULC[2]    83
    X[3]      ULC[3]    83
    X[3]      ULC[4]    38
    X[3]      LLC[0]    13
    X[3]      LLC[1]    44
    X[3]      LLC[3]    17
    X[3]      LLC[4]    100
    X[4]      OBJ       -21
    X[4]      ULC[0]    8
    X[4]      ULC[1]    78
    X[4]      ULC[2]    14
    X[4]      ULC[3]    83
    X[4]      ULC[4]    8
    X[4]      LLC[0]    15
    X[4]      LLC[1]    57
    X[4]      LLC[2]    55
    X[4]      LLC[3]    48
    X[5]      OBJ       31
    X[5]      ULC[0]    1
    X[5]      ULC[1]    38
    X[5]      ULC[2]    21
    X[5]      ULC[3]    18
    X[5]      ULC[4]    97
    X[5]      LLC[0]    4
    X[5]      LLC[1]    11
    X[5]      LLC[2]    48
    X[5]      LLC[3]    7
    X[5]      LLC[4]    92
    X[6]      OBJ       7
    X[6]      ULC[0]    17
    X[6]      ULC[1]    92
    X[6]      ULC[2]    38
    X[6]      ULC[3]    66
    X[6]      ULC[4]    55
    X[6]      LLC[0]    6
    X[6]      LLC[1]    75
    X[6]      LLC[2]    61
    X[6]      LLC[3]    90
    X[6]      LLC[4]    98
    X[7]      OBJ       41
    X[7]      ULC[0]    46
    X[7]      ULC[1]    41
    X[7]      ULC[2]    26
    X[7]      ULC[3]    100
    X[7]      ULC[4]    85
    X[7]      LLC[0]    64
    X[7]      LLC[1]    31
    X[7]      LLC[2]    62
    X[7]      LLC[3]    50
    X[7]      LLC[4]    4
    X[8]      OBJ       -15
    X[8]      ULC[0]    33
    X[8]      ULC[1]    50
    X[8]      ULC[2]    45
    X[8]      ULC[3]    9
    X[8]      ULC[4]    40
    X[8]      LLC[0]    53
    X[8]      LLC[2]    87
    X[8]      LLC[3]    25
    X[8]      LLC[4]    30
    X[9]      OBJ       -3
    X[9]      ULC[0]    2
    X[9]      ULC[1]    41
    X[9]      ULC[2]    66
    X[9]      ULC[3]    86
    X[9]      ULC[4]    11
    X[9]      LLC[0]    91
    X[9]      LLC[1]    54
    X[9]      LLC[2]    86
    X[9]      LLC[3]    84
    X[9]      LLC[4]    46
    Y[0]      OBJ       10
    Y[0]      ULC[0]    9
    Y[0]      ULC[1]    19
    Y[0]      ULC[2]    26
    Y[0]      ULC[3]    45
    Y[0]      ULC[4]    33
    Y[0]      LLC[0]    96
    Y[0]      LLC[1]    1
    Y[0]      LLC[2]    52
    Y[0]      LLC[3]    39
    Y[0]      LLC[4]    93
    Y[1]      OBJ       -28
    Y[1]      ULC[0]    94
    Y[1]      ULC[1]    98
    Y[1]      ULC[2]    11
    Y[1]      ULC[3]    48
    Y[1]      ULC[4]    81
    Y[1]      LLC[0]    80
    Y[1]      LLC[1]    37
    Y[1]      LLC[2]    16
    Y[1]      LLC[3]    83
    Y[1]      LLC[4]    6
    Y[2]      OBJ       11
    Y[2]      ULC[0]    77
    Y[2]      ULC[1]    34
    Y[2]      ULC[2]    4
    Y[2]      ULC[3]    71
    Y[2]      ULC[4]    41
    Y[2]      LLC[0]    53
    Y[2]      LLC[1]    98
    Y[2]      LLC[2]    11
    Y[2]      LLC[3]    33
    Y[2]      LLC[4]    26
    Y[3]      OBJ       33
    Y[3]      ULC[0]    98
    Y[3]      ULC[1]    49
    Y[3]      ULC[2]    80
    Y[3]      ULC[3]    83
    Y[3]      ULC[4]    22
    Y[3]      LLC[0]    17
    Y[3]      LLC[2]    27
    Y[3]      LLC[3]    25
    Y[3]      LLC[4]    61
    Y[4]      OBJ       -48
    Y[4]      ULC[0]    89
    Y[4]      ULC[1]    22
    Y[4]      ULC[2]    11
    Y[4]      ULC[3]    35
    Y[4]      ULC[4]    100
    Y[4]      LLC[0]    1
    Y[4]      LLC[1]    86
    Y[4]      LLC[2]    33
    Y[4]      LLC[3]    60
    Y[4]      LLC[4]    50
    Y[5]      OBJ       48
    Y[5]      ULC[0]    64
    Y[5]      ULC[1]    100
    Y[5]      ULC[2]    68
    Y[5]      ULC[3]    56
    Y[5]      ULC[4]    55
    Y[5]      LLC[0]    11
    Y[5]      LLC[1]    68
    Y[5]      LLC[2]    73
    Y[5]      LLC[3]    27
    Y[5]      LLC[4]    38
    Y[6]      OBJ       -30
    Y[6]      ULC[0]    82
    Y[6]      ULC[1]    88
    Y[6]      ULC[2]    50
    Y[6]      ULC[3]    89
    Y[6]      ULC[4]    36
    Y[6]      LLC[0]    79
    Y[6]      LLC[1]    29
    Y[6]      LLC[2]    34
    Y[6]      LLC[3]    43
    Y[6]      LLC[4]    16
    Y[7]      OBJ       -31
    Y[7]      ULC[0]    90
    Y[7]      ULC[1]    3
    Y[7]      ULC[2]    52
    Y[7]      ULC[3]    91
    Y[7]      ULC[4]    29
    Y[7]      LLC[0]    78
    Y[7]      LLC[1]    100
    Y[7]      LLC[2]    80
    Y[7]      LLC[3]    8
    Y[7]      LLC[4]    92
    Y[8]      OBJ       -48
    Y[8]      ULC[0]    10
    Y[8]      ULC[1]    65
    Y[8]      ULC[2]    12
    Y[8]      ULC[3]    97
    Y[8]      ULC[4]    75
    Y[8]      LLC[0]    67
    Y[8]      LLC[1]    58
    Y[8]      LLC[2]    59
    Y[8]      LLC[3]    73
    Y[8]      LLC[4]    91
    Y[9]      OBJ       -28
    Y[9]      ULC[0]    19
    Y[9]      ULC[1]    11
    Y[9]      ULC[2]    92
    Y[9]      ULC[3]    8
    Y[9]      ULC[4]    80
    Y[9]      LLC[0]    95
    Y[9]      LLC[1]    49
    Y[9]      LLC[2]    89
    Y[9]      LLC[3]    18
    Y[9]      LLC[4]    63
    MARKER    'MARKER'                 'INTEND'
RHS
    RHS1      ULC[0]    736
    RHS1      ULC[1]    780
    RHS1      ULC[2]    610
    RHS1      ULC[3]    938
    RHS1      ULC[4]    807
    RHS1      LLC[0]    1019
    RHS1      LLC[1]    831
    RHS1      LLC[2]    722
    RHS1      LLC[3]    712
    RHS1      LLC[4]    834
BOUNDS
 BV BND1      X[0]    
 BV BND1      X[1]    
 BV BND1      X[2]    
 BV BND1      X[3]    
 BV BND1      X[4]    
 BV BND1      X[5]    
 BV BND1      X[6]    
 BV BND1      X[7]    
 BV BND1      X[8]    
 BV BND1      X[9]    
 BV BND1      Y[0]    
 BV BND1      Y[1]    
 BV BND1      Y[2]    
 BV BND1      Y[3]    
 BV BND1      Y[4]    
 BV BND1      Y[5]    
 BV BND1      Y[6]    
 BV BND1      Y[7]    
 BV BND1      Y[8]    
 BV BND1      Y[9]    
ENDATA
